0 66522 
1 66154 
2 65092 
3 64234 
4 63158 
5 61658 
6 61586 
7 61436 
8 61166 
9 61102 
10 60500 
11 59660 
12 58394 
13 58016 
14 57796 
15 56480 
16 56246 
17 55138 
18 52672 
19 52370 
20 52262 
21 52246 
22 49076 
23 47758 
24 47716 
25 47344 
26 46412 
27 45690 
28 44826 
29 44496 
30 44442 
31 43898 
32 43670 
33 43634 
34 43316 
35 42368 
36 41940 
37 41542 
38 40616 
39 40580 
40 40580 
41 40058 
42 40028 
43 38986 
44 38278 
45 37774 
46 37724 
47 37700 
48 34076 
49 33330 
50 33266 
51 32934 
52 32264 
53 32128 
54 29754 
55 29726 
56 29544 
57 27508 
58 26102 
59 25358 
60 24508 
61 23106 
62 23054 
63 22390 
64 22212 
65 20764 
66 20544 
67 20300 
68 20222 
69 19430 
70 18716 
71 15714 
72 15440 
73 15378 
74 15176 
75 14048 
76 14048 

